c Generated map
c Size: 13 * 13, weights in range: 1 to 10, walls: True, with ratio 0.4
c dim 2 of 3
c
p sp 169 114
c graph contains 169 nodes and 114 arcs
c
a 3 4 6
a 4 3 6
a 4 17 2
a 17 4 2
a 4 5 1
a 5 4 1
a 5 18 2
a 18 5 2
a 7 20 9
a 20 7 9
a 11 12 4
a 12 11 4
a 12 25 3
a 25 12 3
a 12 13 9
a 13 12 9
a 17 30 4
a 30 17 4
a 17 18 5
a 18 17 5
a 18 31 1
a 31 18 1
a 30 31 8
a 31 30 8
a 31 32 7
a 32 31 7
a 32 45 7
a 45 32 7
a 35 48 4
a 48 35 4
a 37 50 2
a 50 37 2
a 41 54 1
a 54 41 1
a 45 58 8
a 58 45 8
a 45 46 2
a 46 45 2
a 48 61 7
a 61 48 7
a 48 49 2
a 49 48 2
a 49 50 3
a 50 49 3
a 53 54 10
a 54 53 10
a 54 67 3
a 67 54 3
a 57 70 3
a 70 57 3
a 57 58 2
a 58 57 2
a 60 73 3
a 73 60 3
a 60 61 4
a 61 60 4
a 61 74 8
a 74 61 8
a 65 78 8
a 78 65 8
a 67 68 6
a 68 67 6
a 68 69 6
a 69 68 6
a 69 70 8
a 70 69 8
a 70 83 2
a 83 70 2
a 72 85 1
a 85 72 1
a 72 73 9
a 73 72 9
a 73 86 8
a 86 73 8
a 73 74 6
a 74 73 6
a 76 89 10
a 89 76 10
a 76 77 1
a 77 76 1
a 77 90 2
a 90 77 2
a 77 78 4
a 78 77 4
a 78 91 10
a 91 78 10
a 83 96 9
a 96 83 9
a 85 98 2
a 98 85 2
a 85 86 3
a 86 85 3
a 88 101 9
a 101 88 9
a 88 89 6
a 89 88 6
a 89 102 2
a 102 89 2
a 89 90 2
a 90 89 2
a 90 91 8
a 91 90 8
a 94 107 5
a 107 94 5
a 98 111 3
a 111 98 3
a 101 114 7
a 114 101 7
a 101 102 7
a 102 101 7
a 102 115 4
a 115 102 4
a 105 106 8
a 106 105 8
a 106 107 5
a 107 106 5
a 107 120 8
a 120 107 8
a 107 108 2
a 108 107 2
a 110 111 2
a 111 110 2
a 111 124 9
a 124 111 9
a 111 112 6
a 112 111 6
a 112 125 9
a 125 112 9
a 114 127 2
a 127 114 2
a 114 115 7
a 115 114 7
a 115 128 7
a 128 115 7
a 115 116 2
a 116 115 2
a 116 129 7
a 129 116 7
a 120 133 4
a 133 120 4
a 124 125 7
a 125 124 7
a 125 138 7
a 138 125 7
a 127 140 6
a 140 127 6
a 127 128 9
a 128 127 9
a 128 141 5
a 141 128 5
a 128 129 8
a 129 128 8
a 129 142 4
a 142 129 4
a 129 130 5
a 130 129 5
a 130 143 10
a 143 130 10
a 132 145 4
a 145 132 4
a 132 133 10
a 133 132 10
a 133 146 5
a 146 133 5
a 136 149 2
a 149 136 2
a 138 139 9
a 139 138 9
a 139 152 7
a 152 139 7
a 139 140 2
a 140 139 2
a 140 153 7
a 153 140 7
a 140 141 5
a 141 140 5
a 141 154 7
a 154 141 7
a 141 142 5
a 142 141 5
a 142 155 9
a 155 142 9
a 142 143 4
a 143 142 4
a 143 156 10
a 156 143 10
a 144 145 10
a 145 144 10
a 145 158 3
a 158 145 3
a 145 146 2
a 146 145 2
a 146 147 5
a 147 146 5
a 147 160 3
a 160 147 3
a 149 162 9
a 162 149 9
a 149 150 2
a 150 149 2
a 150 163 2
a 163 150 2
a 152 165 10
a 165 152 10
a 152 153 10
a 153 152 10
a 153 154 4
a 154 153 4
a 154 167 2
a 167 154 2
a 154 155 5
a 155 154 5
a 155 168 3
a 168 155 3
a 155 156 6
a 156 155 6
a 156 169 9
a 169 156 9
a 160 161 4
a 161 160 4
a 161 162 8
a 162 161 8
a 162 163 2
a 163 162 2
a 167 168 2
a 168 167 2
a 168 169 5
a 169 168 5
